data;
 param notyet : 1 2 3 4 5 6 7 8 9 :=
 1 . 6 . . 2 . . . .
 2 . . . . 4 3 . 2 .
 3 . . . . . . 6 7 5
 4 2 . . . . . 9 . .
 5 . 4 . 9 . 5 . 6 .
 6 . . 8 . . . . . 3
 7 9 7 3 . . . . . .
 8 . 2 . 7 8 . . . .
 9 . . . . 6 . . 1 . ;